proyfinal/src/viki/013/experimentInOfficeAgust.take6.output/462916a3-f13f-4a0f-8f03-caa0fa2bd22a.als.out
Reading from standard input... Use '--help' for help.
============================[ Problem Statistics ]=============================
|                                                                             |
|  Number of variables:         87638                                         |
|  Number of clauses:          161767                                         |
|  Parse time:                   0.04 s                                       |
|                                                                             |
============================[ Search Statistics ]==============================
| Conflicts |          ORIGINAL         |          LEARNT          | Progress |
|           |    Vars  Clauses Literals |    Limit  Clauses Lit/Cl |          |
===============================================================================
|       100 |   62657   106156   265435 |    38923      100      7 | 28.505 % |
|       250 |   62657   106156   265435 |    42816      250     17 | 28.505 % |
|       475 |   62657   106156   265435 |    47097      475     39 | 28.505 % |
|       812 |   62657   106156   265435 |    51807      812     56 | 28.505 % |
|      1318 |   62657   106156   265435 |    56988     1318     68 | 28.505 % |
|      2077 |   44170    51488   131285 |    62687     1958     58 | 49.599 % |
===============================================================================
restarts              : 15
conflicts             : 2949           (8482 /sec)
decisions             : 11054          (0.00 % random) (31792 /sec)
propagations          : 4163097        (11973416 /sec)
conflict literals     : 147111         (49.74 % deleted)
Memory used           : 24.33 MB
CPU time              : 0.347695 s

UNSATISFIABLE
